data/MCDM/NO_CORR/GEN_FROM_60/19_ITEMS_1000_GEN/K5019W02.KNP.mps
NAME          BLANK   
ROWS
 N  OBJROW
 L  R0000000
COLUMNS
    C0000000  OBJROW     -993.         R0000000  165.        
    C0000001  OBJROW     -393.         R0000000  862.        
    C0000002  OBJROW     -793.         R0000000  27.         
    C0000003  OBJROW     -402.         R0000000  999.        
    C0000004  OBJROW     -720.         R0000000  807.        
    C0000005  OBJROW     -961.         R0000000  567.        
    C0000006  OBJROW     -587.         R0000000  328.        
    C0000007  OBJROW     -540.         R0000000  409.        
    C0000008  OBJROW     -95.          R0000000  473.        
    C0000009  OBJROW     -544.         R0000000  465.        
    C0000010  OBJROW     -920.         R0000000  151.        
    C0000011  OBJROW     -1.           R0000000  434.        
    C0000012  OBJROW     -938.         R0000000  712.        
    C0000013  OBJROW     -561.         R0000000  259.        
    C0000014  OBJROW     -522.         R0000000  720.        
    C0000015  OBJROW     -220.         R0000000  952.        
    C0000016  OBJROW     -876.         R0000000  386.        
    C0000017  OBJROW     -63.          R0000000  217.        
    C0000018  OBJROW     -713.         R0000000  82.         
RHS
    RHS       R0000000  14144.      
BOUNDS
 BV BOUND     C0000000  1.          
 BV BOUND     C0000001  1.          
 BV BOUND     C0000002  1.          
 BV BOUND     C0000003  1.          
 BV BOUND     C0000004  1.          
 BV BOUND     C0000005  1.          
 BV BOUND     C0000006  1.          
 BV BOUND     C0000007  1.          
 BV BOUND     C0000008  1.          
 BV BOUND     C0000009  1.          
 BV BOUND     C0000010  1.          
 BV BOUND     C0000011  1.          
 BV BOUND     C0000012  1.          
 BV BOUND     C0000013  1.          
 BV BOUND     C0000014  1.          
 BV BOUND     C0000015  1.          
 BV BOUND     C0000016  1.          
 BV BOUND     C0000017  1.          
 BV BOUND     C0000018  1.          
ENDATA
