data/MCDM/NO_CORR/GEN_FROM_60/19_ITEMS_1000_GEN/K5019W02.KNP.txt
N 19
M 20
LC 19
LC 20
LC 21
LC 22
LC 23
LC 24
LC 25
LC 26
LC 27
LC 28
LC 29
LC 30
LC 31
LC 32
LC 33
LC 34
LC 35
LC 36
LC 37
LR 1
LR 2
LR 3
LR 4
LR 5
LR 6
LR 7
LR 8
LR 9
LR 10
LR 11
LR 12
LR 13
LR 14
LR 15
LR 16
LR 17
LR 18
LR 19
LR 20
LO -993
LO -393
LO -793
LO -402
LO -720
LO -961
LO -587
LO -540
LO -95
LO -544
LO -920
LO -1
LO -938
LO -561
LO -522
LO -220
LO -876
LO -63
LO -713
OS 1
IC 494
IC 413
IC 108
IC 855
IC 315
IC 67
IC 830
IC 812
IC 669
IC 578
IC 603
IC 148
IC 103
IC 172
IC 45
IC 368
IC 1000
IC 962
IC 34
IB 4288
